data/MIPS/RANDOM/milp_5_5_20_0110.mps.txt.mps
NAME          BLANK   
ROWS
 N  OBJROW
 G  R0000000
 G  R0000001
 G  R0000002
 G  R0000003
 G  R0000004
COLUMNS
    C0000000  OBJROW     -5.           R0000001   -11.       
    C0000000  R0000003   -20.       
    C0000001  OBJROW     -12.          R0000001   -8.        
    C0000001  R0000002   -4.           R0000004   -14.       
    C0000002  OBJROW     -4.           R0000000   -19.       
    C0000002  R0000001   -17.          R0000004   -4.        
    C0000003  OBJROW     -10.          R0000001   -16.       
    C0000003  R0000003   -1.        
    C0000004  OBJROW     -7.           R0000000   -2.        
    C0000004  R0000001   -20.          R0000003   -10.       
RHS
    RHS       R0000000   -6.           R0000001   -148.      
    RHS       R0000002   -4.           R0000003   -35.       
    RHS       R0000004   -14.       
BOUNDS
 UI BOUND     C0000000  100.        
 UI BOUND     C0000001  100.        
 UI BOUND     C0000002  100.        
 UI BOUND     C0000003  100.        
 UI BOUND     C0000004  100.        
ENDATA
