data/MIPS/RANDOM/milp_5_5_20_0110.mps.txt
N 5
M 10
LC 5
LC 6
LC 7
LC 8
LC 9
LR 1
LR 2
LR 3
LR 4
LR 5
LR 6
LR 7
LR 8
LR 9
LR 10
LO 5
LO 12
LO 4
LO 10
LO 7
OS -1
IC 1
IC 1
IC 1
IC 1
IC 1
IB 2
